
  32    1
  10

   0   0   5 2 3 4 5 11 
   6   1   2 7 6 
   3   8   2 18 6 
  10   2   3 12 9 7 
   9   6   4 18 15 13 8 
  10   3   2 9 8 
   3   3   4 19 18 16 15 
   7   7   2 16 12 
   9   4   2 15 10 
   6   4   3 19 17 16 
   4   5   3 18 17 16 
   9   5   2 19 14 
  10   4   2 19 14 
  10   5   2 20 17 
   5   2   2 20 17 
   4   4   5 26 24 22 21 20 
   7   3   4 26 24 22 21 
   5   8   4 26 24 22 20 
   8   3   2 23 21 
   1   3   3 29 25 23 
   5   6   3 29 28 25 
   3   5   2 25 23 
   6   4   2 28 27 
   5   1   2 28 27 
   9   3   2 30 27 
   9   1   2 31 29 
   6   7   1 31 
   7   3   1 30 
   3   1   1 30 
   8   4   1 32
   9   5   1 32
   0   0   0 
